outputs/case_168.model.txt
bank_operate_as_agent = False
client_meets_conditions = False
assist_create_formal_appearance = False
guarantee_deposit_amount = 500000
bank_has_permission = False
has_agent_license = False
minimum_guarantee_deposit = 500000
broker_exercise_due_care = True
has_notary_license = False
written_analysis_report_provided = True
fee_charged = False
has_broker_license = True
insurance_category = False
fee_standard_disclosed = False
broker_fulfill_fiduciary_duty = True
bank_operate_as_broker = False
insurance_type_classification = False
compensation_system_established = True
approved_by_authority = True
compensation_principles_drafted_by_association = True
management_rules_complied = True
has_dedicated_accounting_books = True
compensation_system_considers_only_performance = False
compensation_system_considers_risks = True
has_fixed_office = True
compensation_system_considers_customer_interest = True
license_issued = True
compensation_system_approved_by_board = True
relevant_insurance_purchased = True
compensation_principles_approved_by_authority = True
bank_permission_for_agent_or_broker = True
broker_duty_of_care_and_fidelity = True
violation_30_1_major = False
violation_167_3 = False
violation_167_2 = False
compliance_suitability_rules = True
audit_system_implemented = True
compliance_disclosure_rules = True
is_public_company = False
has_certain_scale = False
internal_control_executed = True
single_license_only = True
compensation_system_established_and_approved = True
compensation_system_fair_and_risk_considered = True
internal_control_required = True
internal_control_established = True
audit_system_established = True
compliance_advertising_rules = True
fixed_office_and_accounting = True
compliance_with_management_rules = True
solicitation_handling_system_implemented = True
compensation_system_principles_approved = True
internal_control_implemented = True
violation_30_1_formal = False
license_and_guarantee_required = True
violation_30_1 = False
agent_type = False
insurance_type = False
liability_insurance = False
relevant_insurance_type_correct = False
penalty = False
solicitation_handling_system_established = True
broker_report_and_fee_disclosure = True